p tw 107 118
1 2
2 20
3 11
4 5
5 6
6 9
7 8
8 9
9 10
11 12
11 43
12 13
13 14
14 15
15 16
16 17
17 18
18 19
19 21
20 31
21 22
22 23
22 43
23 24
24 25
25 26
26 27
27 28
28 29
29 30
30 32
31 42
32 33
33 34
34 35
35 36
36 37
37 38
38 39
39 40
40 41
40 33
41 9
42 53
43 44
44 45
45 46
45 7
46 47
47 48
47 63
48 49
49 50
50 51
51 52
51 55
52 54
53 64
54 100
55 56
56 57
57 58
58 59
59 60
60 61
61 62
62 100
63 65
64 75
64 43
65 66
66 67
67 68
68 69
69 70
70 71
70 73
71 72
72 100
73 74
74 76
75 86
76 77
77 78
78 79
79 80
79 87
80 81
81 82
82 83
83 84
84 85
85 77
86 97
86 43
87 88
88 89
89 90
90 91
91 92
92 93
92 100
93 94
94 95
95 96
96 98
97 3
98 99
99 90
100 101
101 102
102 103
102 5
103 104
104 105
105 106
106 107
107 4
